Assets/LKHProbs~/bomb.18.tsp
NAME : GeneratedProblem
COMMENT : SVGCrosshatch
TYPE : TSP
DIMENSION : 10
EDGE_WEIGHT_TYPE : EUC_2D
NODE_COORD_SECTION
1 2400 3300
2 2700 3600
3 2900 3800
4 3100 4100
5 3200 4300
6 3500 3900
7 3600 3600
8 4000 3400
9 4300 3700
10 4400 3200
EOF
