bomb.18.out.txt
NAME : GeneratedProblem.5258.tour
COMMENT : Length = 5258
COMMENT : Found by LKH [Keld Helsgaun] Sat Nov 24 14:17:57 2018
TYPE : TOUR
DIMENSION : 10
TOUR_SECTION
1
2
3
4
5
6
9
10
8
7
-1
EOF
